42      4       
12      11      15      12      
0       0       0       0       0       4       2       3       4       5       
4       0       0       10      0       1       24      
6       0       0       10      0       1       10      
7       3       0       0       0       2       6       19      
5       0       0       0       3       3       7       10      31      
5       6       0       0       0       2       8       28      
6       0       0       0       4       1       14      
6       0       2       0       0       1       9       
8       3       0       0       0       1       11      
7       0       5       0       0       1       15      
1       0       0       0       5       1       12      
9       0       4       0       0       2       13      20      
4       8       0       0       0       1       16      
7       0       0       0       7       1       17      
5       0       0       9       0       2       19      24      
9       3       0       0       0       1       25      
4       0       5       0       0       1       18      
8       0       0       8       0       2       20      24      
5       0       0       3       0       1       28      
1       0       0       10      0       1       21      
10      0       0       0       5       2       22      39      
6       10      0       0       0       1       23      
9       0       0       0       9       2       26      30      
10      0       0       0       1       1       30      
8       0       8       0       0       1       27      
3       1       0       0       0       1       32      
1       4       0       0       0       1       29      
2       0       0       4       0       1       34      
6       0       0       0       6       1       31      
5       5       0       0       0       1       40      
8       0       3       0       0       2       32      35      
8       0       0       0       5       1       33      
10      0       1       0       0       1       37      
7       0       9       0       0       1       38      
1       0       0       9       0       1       36      
4       0       2       0       0       1       38      
6       0       0       0       3       2       40      41      
10      0       0       0       7       1       39      
1       4       0       0       0       1       42      
10      0       0       0       8       1       42      
6       0       0       4       0       1       42      
0       0       0       0       0       0       
